10
7
0 49 77 74 61 16 43
7
0 73 62 34 2 37 8
8
0 40 23 27 59 20 75 57
7
0 13 53 76 72 9 55
11
0 42 3 60 46 25 41 47 56 69 65
13
0 36 67 66 70 38 58 50 32 4 45 22 54
8
0 21 63 11 24 6 78 68
10
0 1 10 71 14 52 28 79 48 18
9
0 51 39 64 33 15 19 26 35
9
0 7 12 44 5 30 29 17 31
